unknown
(model
; cardinality of BoundSet is 1
(declare-sort BoundSet 0)
; rep: @uc_BoundSet_0
(declare-sort UnboundSet 0)
(define-fun IsADD ((BOUND_VARIABLE_327 BoundSet)) Bool true)
(define-fun IsWantingToCleanOut ((BOUND_VARIABLE_339 BoundSet) (BOUND_VARIABLE_340 BoundSet)) Bool false)
)
